instances/p1/p1_6_8-2.dzn
Alphabet = {A,C,G,T};
ns = 6;
nc = 8;
neighbours = [| I(A),I(C),I(C),I(G),I(C),I(C),I(A),I(A) | I(A),I(A),I(C),I(C),I(C),I(A),I(C),I(C) | I(A),I(A),I(A),I(A),I(A),I(A),I(A),I(A) | I(A),I(G),I(C),I(C),I(C),I(A),I(C),I(C) | I(A),I(A),I(C),I(A),I(A),I(A),I(A),I(C) | I(A),I(C),I(C),I(A),I(A),I(A),I(A),I(A) |];
