instances/p1/p1_6_8-2.txt
{
	"num_strings": 6,
	"alphabet": "ACGT",
	"strings": [
		"ACCGCCAA",
		"AACCCACC",
		"AAAAAAAA",
		"AGCCCACC",
		"AACAAAAC",
		"ACCAAAAA"
	],
	"str_length":[8,8,8,8,8,8]
}